nbCarTypes = 8;
nbOptions = 4;
nbSlots = 114;
demand = [16, 6, 6, 20, 6, 20, 20, 20];
option = [
           [1, 0, 1, 0],
           [0, 0, 1, 1],
           [0, 1, 0, 0],
           [1, 1, 0, 0],
           [0, 0, 1, 0],
           [0, 0, 0, 1],
           [0, 1, 1, 0],
           [1, 0, 0, 0]
        ]; 